200
1000
165
165
164
162
162
162
162
161
161
161
160
159
155
154
153
153
152
152
151
150
150
149
149
149
148
148
146
146
145
144
143
143
143
142
142
142
142
141
141
141
141
141
139
138
138
138
138
138
138
137
137
136
135
135
135
134
132
132
131
129
129
129
128
128
128
128
127
127
127
125
125
125
125
125
124
123
122
121
120
120
119
119
117
115
115
115
114
114
113
113
112
111
111
111
110
110
109
109
109
109
108
108
108
107
107
106
106
106
106
105
105
105
105
104
104
102
101
101
101
100
97
96
96
96
95
95
95
95
94
94
94
93
93
92
92
91
91
90
90
88
88
87
87
86
86
85
85
85
85
85
84
84
82
81
81
80
79
79
78
78
78
77
77
77
75
74
73
73
72
71
71
71
70
70
69
69
68
68
68
68
68
67
67
65
65
64
64
64
63
63
63
62
62
59
59
59
59
58
57
57
